\ Generated by MPModelProtoExporter
\   Name             : 
\   Format           : Free
\   Constraints      : 15
\   Variables        : 56
\     Binary         : 56
\     Integer        : 0
\     Continuous     : 0
Minimize
 Obj: +15 X_1_1 +18 X_1_2 +21 X_1_3 +12 X_1_4 +25 X_1_5 +19 X_1_6 +14 X_1_7 +22 X_1_8 +20 X_2_1 +14 X_2_2 +17 X_2_3 +23 X_2_4 +16 X_2_5 +21 X_2_6 +18 X_2_7 +13 X_2_8 +11 X_3_1 +22 X_3_2 +19 X_3_3 +16 X_3_4 +20 X_3_5 +15 X_3_6 +23 X_3_7 +17 X_3_8 +24 X_4_1 +16 X_4_2 +13 X_4_3 +20 X_4_4 +18 X_4_5 +22 X_4_6 +11 X_4_7 +19 X_4_8 +17 X_5_1 +20 X_5_2 +22 X_5_3 +14 X_5_4 +13 X_5_5 +17 X_5_6 +20 X_5_7 +16 X_5_8 +19 X_6_1 +13 X_6_2 +16 X_6_3 +21 X_6_4 +22 X_6_5 +14 X_6_6 +17 X_6_7 +20 X_6_8 +22 X_7_1 +17 X_7_2 +20 X_7_3 +18 X_7_4 +15 X_7_5 +20 X_7_6 +16 X_7_7 +21 X_7_8 
Subject to
 consultant_1: +1 X_1_1 +1 X_1_2 +1 X_1_3 +1 X_1_4 +1 X_1_5 +1 X_1_6 +1 X_1_7 +1 X_1_8  = 1
 consultant_2: +1 X_2_1 +1 X_2_2 +1 X_2_3 +1 X_2_4 +1 X_2_5 +1 X_2_6 +1 X_2_7 +1 X_2_8  = 1
 consultant_3: +1 X_3_1 +1 X_3_2 +1 X_3_3 +1 X_3_4 +1 X_3_5 +1 X_3_6 +1 X_3_7 +1 X_3_8  = 1
 consultant_4: +1 X_4_1 +1 X_4_2 +1 X_4_3 +1 X_4_4 +1 X_4_5 +1 X_4_6 +1 X_4_7 +1 X_4_8  = 1
 consultant_5: +1 X_5_1 +1 X_5_2 +1 X_5_3 +1 X_5_4 +1 X_5_5 +1 X_5_6 +1 X_5_7 +1 X_5_8  = 1
 consultant_6: +1 X_6_1 +1 X_6_2 +1 X_6_3 +1 X_6_4 +1 X_6_5 +1 X_6_6 +1 X_6_7 +1 X_6_8  = 1
 consultant_7: +1 X_7_1 +1 X_7_2 +1 X_7_3 +1 X_7_4 +1 X_7_5 +1 X_7_6 +1 X_7_7 +1 X_7_8  = 1
 project_1: +1 X_1_1 +1 X_2_1 +1 X_3_1 +1 X_4_1 +1 X_5_1 +1 X_6_1 +1 X_7_1  <= 1
 project_2: +1 X_1_2 +1 X_2_2 +1 X_3_2 +1 X_4_2 +1 X_5_2 +1 X_6_2 +1 X_7_2  <= 1
 project_3: +1 X_1_3 +1 X_2_3 +1 X_3_3 +1 X_4_3 +1 X_5_3 +1 X_6_3 +1 X_7_3  <= 1
 project_4: +1 X_1_4 +1 X_2_4 +1 X_3_4 +1 X_4_4 +1 X_5_4 +1 X_6_4 +1 X_7_4  <= 1
 project_5: +1 X_1_5 +1 X_2_5 +1 X_3_5 +1 X_4_5 +1 X_5_5 +1 X_6_5 +1 X_7_5  <= 1
 project_6: +1 X_1_6 +1 X_2_6 +1 X_3_6 +1 X_4_6 +1 X_5_6 +1 X_6_6 +1 X_7_6  <= 1
 project_7: +1 X_1_7 +1 X_2_7 +1 X_3_7 +1 X_4_7 +1 X_5_7 +1 X_6_7 +1 X_7_7  <= 1
 project_8: +1 X_1_8 +1 X_2_8 +1 X_3_8 +1 X_4_8 +1 X_5_8 +1 X_6_8 +1 X_7_8  <= 1
Bounds
 0 <= X_1_1 <= 1
 0 <= X_1_2 <= 1
 0 <= X_1_3 <= 1
 0 <= X_1_4 <= 1
 0 <= X_1_5 <= 1
 0 <= X_1_6 <= 1
 0 <= X_1_7 <= 1
 0 <= X_1_8 <= 1
 0 <= X_2_1 <= 1
 0 <= X_2_2 <= 1
 0 <= X_2_3 <= 1
 0 <= X_2_4 <= 1
 0 <= X_2_5 <= 1
 0 <= X_2_6 <= 1
 0 <= X_2_7 <= 1
 0 <= X_2_8 <= 1
 0 <= X_3_1 <= 1
 0 <= X_3_2 <= 1
 0 <= X_3_3 <= 1
 0 <= X_3_4 <= 1
 0 <= X_3_5 <= 1
 0 <= X_3_6 <= 1
 0 <= X_3_7 <= 1
 0 <= X_3_8 <= 1
 0 <= X_4_1 <= 1
 0 <= X_4_2 <= 1
 0 <= X_4_3 <= 1
 0 <= X_4_4 <= 1
 0 <= X_4_5 <= 1
 0 <= X_4_6 <= 1
 0 <= X_4_7 <= 1
 0 <= X_4_8 <= 1
 0 <= X_5_1 <= 1
 0 <= X_5_2 <= 1
 0 <= X_5_3 <= 1
 0 <= X_5_4 <= 1
 0 <= X_5_5 <= 1
 0 <= X_5_6 <= 1
 0 <= X_5_7 <= 1
 0 <= X_5_8 <= 1
 0 <= X_6_1 <= 1
 0 <= X_6_2 <= 1
 0 <= X_6_3 <= 1
 0 <= X_6_4 <= 1
 0 <= X_6_5 <= 1
 0 <= X_6_6 <= 1
 0 <= X_6_7 <= 1
 0 <= X_6_8 <= 1
 0 <= X_7_1 <= 1
 0 <= X_7_2 <= 1
 0 <= X_7_3 <= 1
 0 <= X_7_4 <= 1
 0 <= X_7_5 <= 1
 0 <= X_7_6 <= 1
 0 <= X_7_7 <= 1
 0 <= X_7_8 <= 1
Binaries
 X_1_1
 X_1_2
 X_1_3
 X_1_4
 X_1_5
 X_1_6
 X_1_7
 X_1_8
 X_2_1
 X_2_2
 X_2_3
 X_2_4
 X_2_5
 X_2_6
 X_2_7
 X_2_8
 X_3_1
 X_3_2
 X_3_3
 X_3_4
 X_3_5
 X_3_6
 X_3_7
 X_3_8
 X_4_1
 X_4_2
 X_4_3
 X_4_4
 X_4_5
 X_4_6
 X_4_7
 X_4_8
 X_5_1
 X_5_2
 X_5_3
 X_5_4
 X_5_5
 X_5_6
 X_5_7
 X_5_8
 X_6_1
 X_6_2
 X_6_3
 X_6_4
 X_6_5
 X_6_6
 X_6_7
 X_6_8
 X_7_1
 X_7_2
 X_7_3
 X_7_4
 X_7_5
 X_7_6
 X_7_7
 X_7_8
End
